39792 38853 
40026 38731 
39638 38922 
40915 37862 
39325 39163 
38596 39642 
37817 40011 
38122 39844 
39073 39321 
39492 39019 
38948 39390 
38310 39756 
38531 39683 
38820 39504 
37429 40202 
38057 39885 
38137 39838 
37562 40086 
39218 39247 
